p wcnf 441 1484
w -2 0.367879 0
w 2 2.718282 0
w -3 0.367879 0
w 3 2.718282 0
w -4 0.367879 0
w 4 2.718282 0
w -5 0.367879 0
w 5 2.718282 0
w -6 0.367879 0
w 6 2.718282 0
w -7 0.367879 0
w 7 2.718282 0
w -8 0.367879 0
w 8 2.718282 0
w -9 0.367879 0
w 9 2.718282 0
w -10 0.367879 0
w 10 2.718282 0
w -12 0.367879 0
w 12 2.718282 0
w -13 0.367879 0
w 13 2.718282 0
w -14 0.367879 0
w 14 2.718282 0
w -15 0.367879 0
w 15 2.718282 0
w -16 0.367879 0
w 16 2.718282 0
w -17 0.367879 0
w 17 2.718282 0
w -18 0.367879 0
w 18 2.718282 0
w -19 0.367879 0
w 19 2.718282 0
w -20 0.367879 0
w 20 2.718282 0
w -21 0.367879 0
w 21 2.718282 0
w -22 0.367879 0
w 22 2.718282 0
w -24 0.367879 0
w 24 2.718282 0
w -25 0.367879 0
w 25 2.718282 0
w -26 0.367879 0
w 26 2.718282 0
w -27 0.367879 0
w 27 2.718282 0
w -28 0.367879 0
w 28 2.718282 0
w -29 0.367879 0
w 29 2.718282 0
w -30 0.367879 0
w 30 2.718282 0
w -31 0.367879 0
w 31 2.718282 0
w -32 0.367879 0
w 32 2.718282 0
w -33 0.367879 0
w 33 2.718282 0
w -34 0.367879 0
w 34 2.718282 0
w -35 0.367879 0
w 35 2.718282 0
w -37 0.367879 0
w 37 2.718282 0
w -38 0.367879 0
w 38 2.718282 0
w -39 0.367879 0
w 39 2.718282 0
w -40 0.367879 0
w 40 2.718282 0
w -41 0.367879 0
w 41 2.718282 0
w -42 0.367879 0
w 42 2.718282 0
w -43 0.367879 0
w 43 2.718282 0
w -44 0.367879 0
w 44 2.718282 0
w -45 0.367879 0
w 45 2.718282 0
w -46 0.367879 0
w 46 2.718282 0
w -47 0.367879 0
w 47 2.718282 0
w -48 0.367879 0
w 48 2.718282 0
w -50 0.367879 0
w 50 2.718282 0
w -51 0.367879 0
w 51 2.718282 0
w -52 0.367879 0
w 52 2.718282 0
w -53 0.367879 0
w 53 2.718282 0
w -54 0.367879 0
w 54 2.718282 0
w -55 0.367879 0
w 55 2.718282 0
w -56 0.367879 0
w 56 2.718282 0
w -57 0.367879 0
w 57 2.718282 0
w -58 0.367879 0
w 58 2.718282 0
w -59 0.367879 0
w 59 2.718282 0
w -61 0.367879 0
w 61 2.718282 0
w -62 0.367879 0
w 62 2.718282 0
w -63 0.367879 0
w 63 2.718282 0
w -64 0.367879 0
w 64 2.718282 0
w -65 0.367879 0
w 65 2.718282 0
w -66 0.367879 0
w 66 2.718282 0
w -67 0.367879 0
w 67 2.718282 0
w -68 0.367879 0
w 68 2.718282 0
w -69 0.367879 0
w 69 2.718282 0
w -71 0.367879 0
w 71 2.718282 0
w -72 0.367879 0
w 72 2.718282 0
w -73 0.367879 0
w 73 2.718282 0
w -74 0.367879 0
w 74 2.718282 0
w -75 0.367879 0
w 75 2.718282 0
w -76 0.367879 0
w 76 2.718282 0
w -77 0.367879 0
w 77 2.718282 0
w -78 0.367879 0
w 78 2.718282 0
w -80 0.367879 0
w 80 2.718282 0
w -81 0.367879 0
w 81 2.718282 0
w -82 0.367879 0
w 82 2.718282 0
w -83 0.367879 0
w 83 2.718282 0
w -84 0.367879 0
w 84 2.718282 0
w -85 0.367879 0
w 85 2.718282 0
w -86 0.367879 0
w 86 2.718282 0
w -87 0.367879 0
w 87 2.718282 0
w -88 0.367879 0
w 88 2.718282 0
w -89 0.367879 0
w 89 2.718282 0
w -90 0.367879 0
w 90 2.718282 0
w -92 0.367879 0
w 92 2.718282 0
w -93 0.367879 0
w 93 2.718282 0
w -94 0.367879 0
w 94 2.718282 0
w -95 0.367879 0
w 95 2.718282 0
w -96 0.367879 0
w 96 2.718282 0
w -97 0.367879 0
w 97 2.718282 0
w -98 0.367879 0
w 98 2.718282 0
w -99 0.367879 0
w 99 2.718282 0
w -100 0.367879 0
w 100 2.718282 0
w -101 0.367879 0
w 101 2.718282 0
w -102 0.367879 0
w 102 2.718282 0
w -103 0.367879 0
w 103 2.718282 0
w -104 0.367879 0
w 104 2.718282 0
w -105 0.367879 0
w 105 2.718282 0
w -106 0.367879 0
w 106 2.718282 0
w -107 0.367879 0
w 107 2.718282 0
w -109 0.367879 0
w 109 2.718282 0
w -110 0.367879 0
w 110 2.718282 0
w -111 0.367879 0
w 111 2.718282 0
w -112 0.367879 0
w 112 2.718282 0
w -113 0.367879 0
w 113 2.718282 0
w -114 0.367879 0
w 114 2.718282 0
w -115 0.367879 0
w 115 2.718282 0
w -116 0.367879 0
w 116 2.718282 0
w -118 0.367879 0
w 118 2.718282 0
w -119 0.367879 0
w 119 2.718282 0
w -120 0.367879 0
w 120 2.718282 0
w -121 0.367879 0
w 121 2.718282 0
w -122 0.367879 0
w 122 2.718282 0
w -123 0.367879 0
w 123 2.718282 0
w -124 0.367879 0
w 124 2.718282 0
w -126 0.367879 0
w 126 2.718282 0
w -127 0.367879 0
w 127 2.718282 0
w -128 0.367879 0
w 128 2.718282 0
w -129 0.367879 0
w 129 2.718282 0
w -130 0.367879 0
w 130 2.718282 0
w -131 0.367879 0
w 131 2.718282 0
w -132 0.367879 0
w 132 2.718282 0
w -133 0.367879 0
w 133 2.718282 0
w -134 0.367879 0
w 134 2.718282 0
w -136 0.367879 0
w 136 2.718282 0
w -137 0.367879 0
w 137 2.718282 0
w -138 0.367879 0
w 138 2.718282 0
w -139 0.367879 0
w 139 2.718282 0
w -140 0.367879 0
w 140 2.718282 0
w -141 0.367879 0
w 141 2.718282 0
w -142 0.367879 0
w 142 2.718282 0
w -143 0.367879 0
w 143 2.718282 0
w -145 0.367879 0
w 145 2.718282 0
w -146 0.367879 0
w 146 2.718282 0
w -147 0.367879 0
w 147 2.718282 0
w -148 0.367879 0
w 148 2.718282 0
w -150 0.367879 0
w 150 2.718282 0
w -151 0.367879 0
w 151 2.718282 0
w -152 0.367879 0
w 152 2.718282 0
w -153 0.367879 0
w 153 2.718282 0
w -154 0.367879 0
w 154 2.718282 0
w -155 0.367879 0
w 155 2.718282 0
w -156 0.367879 0
w 156 2.718282 0
w -157 0.367879 0
w 157 2.718282 0
w -158 0.367879 0
w 158 2.718282 0
w -159 0.367879 0
w 159 2.718282 0
w -160 0.367879 0
w 160 2.718282 0
w -161 0.367879 0
w 161 2.718282 0
w -162 0.367879 0
w 162 2.718282 0
w -164 0.367879 0
w 164 2.718282 0
w -165 0.367879 0
w 165 2.718282 0
w -166 0.367879 0
w 166 2.718282 0
w -167 0.367879 0
w 167 2.718282 0
w -168 0.367879 0
w 168 2.718282 0
w -169 0.367879 0
w 169 2.718282 0
w -170 0.367879 0
w 170 2.718282 0
w -172 0.367879 0
w 172 2.718282 0
w -173 0.367879 0
w 173 2.718282 0
w -174 0.367879 0
w 174 2.718282 0
w -175 0.367879 0
w 175 2.718282 0
w -176 0.367879 0
w 176 2.718282 0
w -177 0.367879 0
w 177 2.718282 0
w -178 0.367879 0
w 178 2.718282 0
w -179 0.367879 0
w 179 2.718282 0
w -180 0.367879 0
w 180 2.718282 0
w -182 0.367879 0
w 182 2.718282 0
w -183 0.367879 0
w 183 2.718282 0
w -184 0.367879 0
w 184 2.718282 0
w -185 0.367879 0
w 185 2.718282 0
w -186 0.367879 0
w 186 2.718282 0
w -187 0.367879 0
w 187 2.718282 0
w -188 0.367879 0
w 188 2.718282 0
w -189 0.367879 0
w 189 2.718282 0
w -190 0.367879 0
w 190 2.718282 0
w -191 0.367879 0
w 191 2.718282 0
w -192 0.367879 0
w 192 2.718282 0
w -193 0.367879 0
w 193 2.718282 0
w -195 0.367879 0
w 195 2.718282 0
w -196 0.367879 0
w 196 2.718282 0
w -197 0.367879 0
w 197 2.718282 0
w -198 0.367879 0
w 198 2.718282 0
w -199 0.367879 0
w 199 2.718282 0
w -201 0.367879 0
w 201 2.718282 0
w -202 0.367879 0
w 202 2.718282 0
w -203 0.367879 0
w 203 2.718282 0
w -204 0.367879 0
w 204 2.718282 0
w -205 0.367879 0
w 205 2.718282 0
w -206 0.367879 0
w 206 2.718282 0
w -207 0.367879 0
w 207 2.718282 0
w -209 0.367879 0
w 209 2.718282 0
w -210 0.367879 0
w 210 2.718282 0
w -211 0.367879 0
w 211 2.718282 0
w -212 0.367879 0
w 212 2.718282 0
w -213 0.367879 0
w 213 2.718282 0
w -214 0.367879 0
w 214 2.718282 0
w -215 0.367879 0
w 215 2.718282 0
w -216 0.367879 0
w 216 2.718282 0
w -217 0.367879 0
w 217 2.718282 0
w -219 0.367879 0
w 219 2.718282 0
w -220 0.367879 0
w 220 2.718282 0
w -221 0.367879 0
w 221 2.718282 0
w -222 0.367879 0
w 222 2.718282 0
w -224 0.367879 0
w 224 2.718282 0
w -225 0.367879 0
w 225 2.718282 0
w -226 0.367879 0
w 226 2.718282 0
w -227 0.367879 0
w 227 2.718282 0
w -228 0.367879 0
w 228 2.718282 0
w -229 0.367879 0
w 229 2.718282 0
w -230 0.367879 0
w 230 2.718282 0
w -232 0.367879 0
w 232 2.718282 0
w -233 0.367879 0
w 233 2.718282 0
w -234 0.367879 0
w 234 2.718282 0
w -236 0.367879 0
w 236 2.718282 0
w -237 0.367879 0
w 237 2.718282 0
w -238 0.367879 0
w 238 2.718282 0
w -239 0.367879 0
w 239 2.718282 0
w -240 0.367879 0
w 240 2.718282 0
w -241 0.367879 0
w 241 2.718282 0
w -243 0.367879 0
w 243 2.718282 0
w -244 0.367879 0
w 244 2.718282 0
w -245 0.367879 0
w 245 2.718282 0
w -246 0.367879 0
w 246 2.718282 0
w -247 0.367879 0
w 247 2.718282 0
w -248 0.367879 0
w 248 2.718282 0
w -250 0.367879 0
w 250 2.718282 0
w -251 0.367879 0
w 251 2.718282 0
w -252 0.367879 0
w 252 2.718282 0
w -253 0.367879 0
w 253 2.718282 0
w -254 0.367879 0
w 254 2.718282 0
w -255 0.367879 0
w 255 2.718282 0
w -256 0.367879 0
w 256 2.718282 0
w -257 0.367879 0
w 257 2.718282 0
w -258 0.367879 0
w 258 2.718282 0
w -259 0.367879 0
w 259 2.718282 0
w -260 0.367879 0
w 260 2.718282 0
w -262 0.367879 0
w 262 2.718282 0
w -263 0.367879 0
w 263 2.718282 0
w -264 0.367879 0
w 264 2.718282 0
w -266 0.367879 0
w 266 2.718282 0
w -267 0.367879 0
w 267 2.718282 0
w -268 0.367879 0
w 268 2.718282 0
w -269 0.367879 0
w 269 2.718282 0
w -270 0.367879 0
w 270 2.718282 0
w -271 0.367879 0
w 271 2.718282 0
w -273 0.367879 0
w 273 2.718282 0
w -274 0.367879 0
w 274 2.718282 0
w -275 0.367879 0
w 275 2.718282 0
w -277 0.367879 0
w 277 2.718282 0
w -278 0.367879 0
w 278 2.718282 0
w -279 0.367879 0
w 279 2.718282 0
w -280 0.367879 0
w 280 2.718282 0
w -282 0.367879 0
w 282 2.718282 0
w -283 0.367879 0
w 283 2.718282 0
w -284 0.367879 0
w 284 2.718282 0
w -285 0.367879 0
w 285 2.718282 0
w -286 0.367879 0
w 286 2.718282 0
w -287 0.367879 0
w 287 2.718282 0
w -288 0.367879 0
w 288 2.718282 0
w -290 0.367879 0
w 290 2.718282 0
w -291 0.367879 0
w 291 2.718282 0
w -292 0.367879 0
w 292 2.718282 0
w -293 0.367879 0
w 293 2.718282 0
w -294 0.367879 0
w 294 2.718282 0
w -295 0.367879 0
w 295 2.718282 0
w -296 0.367879 0
w 296 2.718282 0
w -298 0.367879 0
w 298 2.718282 0
w -299 0.367879 0
w 299 2.718282 0
w -300 0.367879 0
w 300 2.718282 0
w -301 0.367879 0
w 301 2.718282 0
w -302 0.367879 0
w 302 2.718282 0
w -304 0.367879 0
w 304 2.718282 0
w -305 0.367879 0
w 305 2.718282 0
w -306 0.367879 0
w 306 2.718282 0
w -307 0.367879 0
w 307 2.718282 0
w -308 0.367879 0
w 308 2.718282 0
w -309 0.367879 0
w 309 2.718282 0
w -310 0.367879 0
w 310 2.718282 0
w -312 0.367879 0
w 312 2.718282 0
w -313 0.367879 0
w 313 2.718282 0
w -314 0.367879 0
w 314 2.718282 0
w -316 0.367879 0
w 316 2.718282 0
w -317 0.367879 0
w 317 2.718282 0
w -318 0.367879 0
w 318 2.718282 0
w -319 0.367879 0
w 319 2.718282 0
w -320 0.367879 0
w 320 2.718282 0
w -321 0.367879 0
w 321 2.718282 0
w -323 0.367879 0
w 323 2.718282 0
w -324 0.367879 0
w 324 2.718282 0
w -325 0.367879 0
w 325 2.718282 0
w -326 0.367879 0
w 326 2.718282 0
w -327 0.367879 0
w 327 2.718282 0
w -328 0.367879 0
w 328 2.718282 0
w -329 0.367879 0
w 329 2.718282 0
w -330 0.367879 0
w 330 2.718282 0
w -332 0.367879 0
w 332 2.718282 0
w -333 0.367879 0
w 333 2.718282 0
w -334 0.367879 0
w 334 2.718282 0
w -335 0.367879 0
w 335 2.718282 0
w -337 0.367879 0
w 337 2.718282 0
w -338 0.367879 0
w 338 2.718282 0
w -339 0.367879 0
w 339 2.718282 0
w -340 0.367879 0
w 340 2.718282 0
w -341 0.367879 0
w 341 2.718282 0
w -343 0.367879 0
w 343 2.718282 0
w -345 0.367879 0
w 345 2.718282 0
w -346 0.367879 0
w 346 2.718282 0
w -347 0.367879 0
w 347 2.718282 0
w -348 0.367879 0
w 348 2.718282 0
w -350 0.367879 0
w 350 2.718282 0
w -351 0.367879 0
w 351 2.718282 0
w -352 0.367879 0
w 352 2.718282 0
w -353 0.367879 0
w 353 2.718282 0
w -354 0.367879 0
w 354 2.718282 0
w -356 0.367879 0
w 356 2.718282 0
w -357 0.367879 0
w 357 2.718282 0
w -358 0.367879 0
w 358 2.718282 0
w -360 0.367879 0
w 360 2.718282 0
w -361 0.367879 0
w 361 2.718282 0
w -362 0.367879 0
w 362 2.718282 0
w -363 0.367879 0
w 363 2.718282 0
w -364 0.367879 0
w 364 2.718282 0
w -366 0.367879 0
w 366 2.718282 0
w -367 0.367879 0
w 367 2.718282 0
w -368 0.367879 0
w 368 2.718282 0
w -369 0.367879 0
w 369 2.718282 0
w -370 0.367879 0
w 370 2.718282 0
w -372 0.367879 0
w 372 2.718282 0
w -373 0.367879 0
w 373 2.718282 0
w -374 0.367879 0
w 374 2.718282 0
w -375 0.367879 0
w 375 2.718282 0
w -376 0.367879 0
w 376 2.718282 0
w -378 0.367879 0
w 378 2.718282 0
w -379 0.367879 0
w 379 2.718282 0
w -380 0.367879 0
w 380 2.718282 0
w -381 0.367879 0
w 381 2.718282 0
w -382 0.367879 0
w 382 2.718282 0
w -383 0.367879 0
w 383 2.718282 0
w -385 0.367879 0
w 385 2.718282 0
w -386 0.367879 0
w 386 2.718282 0
w -387 0.367879 0
w 387 2.718282 0
w -389 0.367879 0
w 389 2.718282 0
w -390 0.367879 0
w 390 2.718282 0
w -391 0.367879 0
w 391 2.718282 0
w -392 0.367879 0
w 392 2.718282 0
w -393 0.367879 0
w 393 2.718282 0
w -395 0.367879 0
w 395 2.718282 0
w -397 0.367879 0
w 397 2.718282 0
w -398 0.367879 0
w 398 2.718282 0
w -399 0.367879 0
w 399 2.718282 0
w -401 0.367879 0
w 401 2.718282 0
w -402 0.367879 0
w 402 2.718282 0
w -403 0.367879 0
w 403 2.718282 0
w -404 0.367879 0
w 404 2.718282 0
w -405 0.367879 0
w 405 2.718282 0
w -407 0.367879 0
w 407 2.718282 0
w -410 0.367879 0
w 410 2.718282 0
w -412 0.367879 0
w 412 2.718282 0
w -413 0.367879 0
w 413 2.718282 0
w -414 0.367879 0
w 414 2.718282 0
w -416 0.367879 0
w 416 2.718282 0
w -417 0.367879 0
w 417 2.718282 0
w -419 0.367879 0
w 419 2.718282 0
w -420 0.367879 0
w 420 2.718282 0
w -422 0.367879 0
w 422 2.718282 0
w -423 0.367879 0
w 423 2.718282 0
w -425 0.367879 0
w 425 2.718282 0
w -426 0.367879 0
w 426 2.718282 0
w -428 0.367879 0
w 428 2.718282 0
w -429 0.367879 0
w 429 2.718282 0
w -431 0.367879 0
w 431 2.718282 0
w -434 0.367879 0
w 434 2.718282 0
w -436 0.367879 0
w 436 2.718282 0
w -440 0.367879 0
w 440 2.718282 0
2 1 11 0
2 -1 -11 0
-2 1 -11 0
-2 -1 11 0
3 1 79 0
3 -1 -79 0
-3 1 -79 0
-3 -1 79 0
4 1 117 0
4 -1 -117 0
-4 1 -117 0
-4 -1 117 0
5 1 200 0
5 -1 -200 0
-5 1 -200 0
-5 -1 200 0
6 1 208 0
6 -1 -208 0
-6 1 -208 0
-6 -1 208 0
7 1 231 0
7 -1 -231 0
-7 1 -231 0
-7 -1 231 0
8 1 289 0
8 -1 -289 0
-8 1 -289 0
-8 -1 289 0
9 1 432 0
9 -1 -432 0
-9 1 -432 0
-9 -1 432 0
10 1 441 0
10 -1 -441 0
-10 1 -441 0
-10 -1 441 0
12 11 60 0
12 -11 -60 0
-12 11 -60 0
-12 -11 60 0
13 11 163 0
13 -11 -163 0
-13 11 -163 0
-13 -11 163 0
14 11 208 0
14 -11 -208 0
-14 11 -208 0
-14 -11 208 0
15 11 331 0
15 -11 -331 0
-15 11 -331 0
-15 -11 331 0
16 11 336 0
16 -11 -336 0
-16 11 -336 0
-16 -11 336 0
17 11 355 0
17 -11 -355 0
-17 11 -355 0
-17 -11 355 0
18 11 365 0
18 -11 -365 0
-18 11 -365 0
-18 -11 365 0
19 11 400 0
19 -11 -400 0
-19 11 -400 0
-19 -11 400 0
20 11 409 0
20 -11 -409 0
-20 11 -409 0
-20 -11 409 0
21 11 418 0
21 -11 -418 0
-21 11 -418 0
-21 -11 418 0
22 11 438 0
22 -11 -438 0
-22 11 -438 0
-22 -11 438 0
24 23 36 0
24 -23 -36 0
-24 23 -36 0
-24 -23 36 0
25 23 49 0
25 -23 -49 0
-25 23 -49 0
-25 -23 49 0
26 23 117 0
26 -23 -117 0
-26 23 -117 0
-26 -23 117 0
27 23 125 0
27 -23 -125 0
-27 23 -125 0
-27 -23 125 0
28 23 200 0
28 -23 -200 0
-28 23 -200 0
-28 -23 200 0
29 23 231 0
29 -23 -231 0
-29 23 -231 0
-29 -23 231 0
30 23 235 0
30 -23 -235 0
-30 23 -235 0
-30 -23 235 0
31 23 265 0
31 -23 -265 0
-31 23 -265 0
-31 -23 265 0
32 23 371 0
32 -23 -371 0
-32 23 -371 0
-32 -23 371 0
33 23 384 0
33 -23 -384 0
-33 23 -384 0
-33 -23 384 0
34 23 406 0
34 -23 -406 0
-34 23 -406 0
-34 -23 406 0
35 23 418 0
35 -23 -418 0
-35 23 -418 0
-35 -23 418 0
37 36 91 0
37 -36 -91 0
-37 36 -91 0
-37 -36 91 0
38 36 108 0
38 -36 -108 0
-38 36 -108 0
-38 -36 108 0
39 36 171 0
39 -36 -171 0
-39 36 -171 0
-39 -36 171 0
40 36 200 0
40 -36 -200 0
-40 36 -200 0
-40 -36 200 0
41 36 289 0
41 -36 -289 0
-41 36 -289 0
-41 -36 289 0
42 36 297 0
42 -36 -297 0
-42 36 -297 0
-42 -36 297 0
43 36 331 0
43 -36 -331 0
-43 36 -331 0
-43 -36 331 0
44 36 359 0
44 -36 -359 0
-44 36 -359 0
-44 -36 359 0
45 36 411 0
45 -36 -411 0
-45 36 -411 0
-45 -36 411 0
46 36 430 0
46 -36 -430 0
-46 36 -430 0
-46 -36 430 0
47 36 432 0
47 -36 -432 0
-47 36 -432 0
-47 -36 432 0
48 36 438 0
48 -36 -438 0
-48 36 -438 0
-48 -36 438 0
50 49 60 0
50 -49 -60 0
-50 49 -60 0
-50 -49 60 0
51 49 108 0
51 -49 -108 0
-51 49 -108 0
-51 -49 108 0
52 49 208 0
52 -49 -208 0
-52 49 -208 0
-52 -49 208 0
53 49 223 0
53 -49 -223 0
-53 49 -223 0
-53 -49 223 0
54 49 289 0
54 -49 -289 0
-54 49 -289 0
-54 -49 289 0
55 49 297 0
55 -49 -297 0
-55 49 -297 0
-55 -49 297 0
56 49 344 0
56 -49 -344 0
-56 49 -344 0
-56 -49 344 0
57 49 418 0
57 -49 -418 0
-57 49 -418 0
-57 -49 418 0
58 49 421 0
58 -49 -421 0
-58 49 -421 0
-58 -49 421 0
59 49 433 0
59 -49 -433 0
-59 49 -433 0
-59 -49 433 0
61 60 149 0
61 -60 -149 0
-61 60 -149 0
-61 -60 149 0
62 60 208 0
62 -60 -208 0
-62 60 -208 0
-62 -60 208 0
63 60 231 0
63 -60 -231 0
-63 60 -231 0
-63 -60 231 0
64 60 261 0
64 -60 -261 0
-64 60 -261 0
-64 -60 261 0
65 60 342 0
65 -60 -342 0
-65 60 -342 0
-65 -60 342 0
66 60 377 0
66 -60 -377 0
-66 60 -377 0
-66 -60 377 0
67 60 384 0
67 -60 -384 0
-67 60 -384 0
-67 -60 384 0
68 60 388 0
68 -60 -388 0
-68 60 -388 0
-68 -60 388 0
69 60 418 0
69 -60 -418 0
-69 60 -418 0
-69 -60 418 0
71 70 171 0
71 -70 -171 0
-71 70 -171 0
-71 -70 171 0
72 70 261 0
72 -70 -261 0
-72 70 -261 0
-72 -70 261 0
73 70 303 0
73 -70 -303 0
-73 70 -303 0
-73 -70 303 0
74 70 349 0
74 -70 -349 0
-74 70 -349 0
-74 -70 349 0
75 70 394 0
75 -70 -394 0
-75 70 -394 0
-75 -70 394 0
76 70 406 0
76 -70 -406 0
-76 70 -406 0
-76 -70 406 0
77 70 427 0
77 -70 -427 0
-77 70 -427 0
-77 -70 427 0
78 70 433 0
78 -70 -433 0
-78 70 -433 0
-78 -70 433 0
80 79 171 0
80 -79 -171 0
-80 79 -171 0
-80 -79 171 0
81 79 223 0
81 -79 -223 0
-81 79 -223 0
-81 -79 223 0
82 79 231 0
82 -79 -231 0
-82 79 -231 0
-82 -79 231 0
83 79 272 0
83 -79 -272 0
-83 79 -272 0
-83 -79 272 0
84 79 349 0
84 -79 -349 0
-84 79 -349 0
-84 -79 349 0
85 79 359 0
85 -79 -359 0
-85 79 -359 0
-85 -79 359 0
86 79 371 0
86 -79 -371 0
-86 79 -371 0
-86 -79 371 0
87 79 384 0
87 -79 -384 0
-87 79 -384 0
-87 -79 384 0
88 79 394 0
88 -79 -394 0
-88 79 -394 0
-88 -79 394 0
89 79 400 0
89 -79 -400 0
-89 79 -400 0
-89 -79 400 0
90 79 439 0
90 -79 -439 0
-90 79 -439 0
-90 -79 439 0
92 91 108 0
92 -91 -108 0
-92 91 -108 0
-92 -91 108 0
93 91 125 0
93 -91 -125 0
-93 91 -125 0
-93 -91 125 0
94 91 135 0
94 -91 -135 0
-94 91 -135 0
-94 -91 135 0
95 91 200 0
95 -91 -200 0
-95 91 -200 0
-95 -91 200 0
96 91 231 0
96 -91 -231 0
-96 91 -231 0
-96 -91 231 0
97 91 249 0
97 -91 -249 0
-97 91 -249 0
-97 -91 249 0
98 91 281 0
98 -91 -281 0
-98 91 -281 0
-98 -91 281 0
99 91 315 0
99 -91 -315 0
-99 91 -315 0
-99 -91 315 0
100 91 371 0
100 -91 -371 0
-100 91 -371 0
-100 -91 371 0
101 91 377 0
101 -91 -377 0
-101 91 -377 0
-101 -91 377 0
102 91 394 0
102 -91 -394 0
-102 91 -394 0
-102 -91 394 0
103 91 408 0
103 -91 -408 0
-103 91 -408 0
-103 -91 408 0
104 91 411 0
104 -91 -411 0
-104 91 -411 0
-104 -91 411 0
105 91 421 0
105 -91 -421 0
-105 91 -421 0
-105 -91 421 0
106 91 432 0
106 -91 -432 0
-106 91 -432 0
-106 -91 432 0
107 91 438 0
107 -91 -438 0
-107 91 -438 0
-107 -91 438 0
109 108 181 0
109 -108 -181 0
-109 108 -181 0
-109 -108 181 0
110 108 281 0
110 -108 -281 0
-110 108 -281 0
-110 -108 281 0
111 108 322 0
111 -108 -322 0
-111 108 -322 0
-111 -108 322 0
112 108 331 0
112 -108 -331 0
-112 108 -331 0
-112 -108 331 0
113 108 344 0
113 -108 -344 0
-113 108 -344 0
-113 -108 344 0
114 108 355 0
114 -108 -355 0
-114 108 -355 0
-114 -108 355 0
115 108 377 0
115 -108 -377 0
-115 108 -377 0
-115 -108 377 0
116 108 441 0
116 -108 -441 0
-116 108 -441 0
-116 -108 441 0
118 117 171 0
118 -117 -171 0
-118 117 -171 0
-118 -117 171 0
119 117 231 0
119 -117 -231 0
-119 117 -231 0
-119 -117 231 0
120 117 336 0
120 -117 -336 0
-120 117 -336 0
-120 -117 336 0
121 117 396 0
121 -117 -396 0
-121 117 -396 0
-121 -117 396 0
122 117 408 0
122 -117 -408 0
-122 117 -408 0
-122 -117 408 0
123 117 432 0
123 -117 -432 0
-123 117 -432 0
-123 -117 432 0
124 117 441 0
124 -117 -441 0
-124 117 -441 0
-124 -117 441 0
126 125 135 0
126 -125 -135 0
-126 125 -135 0
-126 -125 135 0
127 125 223 0
127 -125 -223 0
-127 125 -223 0
-127 -125 223 0
128 125 265 0
128 -125 -265 0
-128 125 -265 0
-128 -125 265 0
129 125 344 0
129 -125 -344 0
-129 125 -344 0
-129 -125 344 0
130 125 394 0
130 -125 -394 0
-130 125 -394 0
-130 -125 394 0
131 125 408 0
131 -125 -408 0
-131 125 -408 0
-131 -125 408 0
132 125 421 0
132 -125 -421 0
-132 125 -421 0
-132 -125 421 0
133 125 424 0
133 -125 -424 0
-133 125 -424 0
-133 -125 424 0
134 125 441 0
134 -125 -441 0
-134 125 -441 0
-134 -125 441 0
136 135 231 0
136 -135 -231 0
-136 135 -231 0
-136 -135 231 0
137 135 322 0
137 -135 -322 0
-137 135 -322 0
-137 -135 322 0
138 135 371 0
138 -135 -371 0
-138 135 -371 0
-138 -135 371 0
139 135 377 0
139 -135 -377 0
-139 135 -377 0
-139 -135 377 0
140 135 408 0
140 -135 -408 0
-140 135 -408 0
-140 -135 408 0
141 135 415 0
141 -135 -415 0
-141 135 -415 0
-141 -135 415 0
142 135 427 0
142 -135 -427 0
-142 135 -427 0
-142 -135 427 0
143 135 441 0
143 -135 -441 0
-143 135 -441 0
-143 -135 441 0
145 144 261 0
145 -144 -261 0
-145 144 -261 0
-145 -144 261 0
146 144 315 0
146 -144 -315 0
-146 144 -315 0
-146 -144 315 0
147 144 322 0
147 -144 -322 0
-147 144 -322 0
-147 -144 322 0
148 144 394 0
148 -144 -394 0
-148 144 -394 0
-148 -144 394 0
150 149 181 0
150 -149 -181 0
-150 149 -181 0
-150 -149 181 0
151 149 194 0
151 -149 -194 0
-151 149 -194 0
-151 -149 194 0
152 149 200 0
152 -149 -200 0
-152 149 -200 0
-152 -149 200 0
153 149 208 0
153 -149 -208 0
-153 149 -208 0
-153 -149 208 0
154 149 231 0
154 -149 -231 0
-154 149 -231 0
-154 -149 231 0
155 149 249 0
155 -149 -249 0
-155 149 -249 0
-155 -149 249 0
156 149 261 0
156 -149 -261 0
-156 149 -261 0
-156 -149 261 0
157 149 289 0
157 -149 -289 0
-157 149 -289 0
-157 -149 289 0
158 149 336 0
158 -149 -336 0
-158 149 -336 0
-158 -149 336 0
159 149 377 0
159 -149 -377 0
-159 149 -377 0
-159 -149 377 0
160 149 400 0
160 -149 -400 0
-160 149 -400 0
-160 -149 400 0
161 149 415 0
161 -149 -415 0
-161 149 -415 0
-161 -149 415 0
162 149 433 0
162 -149 -433 0
-162 149 -433 0
-162 -149 433 0
164 163 289 0
164 -163 -289 0
-164 163 -289 0
-164 -163 289 0
165 163 311 0
165 -163 -311 0
-165 163 -311 0
-165 -163 311 0
166 163 365 0
166 -163 -365 0
-166 163 -365 0
-166 -163 365 0
167 163 377 0
167 -163 -377 0
-167 163 -377 0
-167 -163 377 0
168 163 384 0
168 -163 -384 0
-168 163 -384 0
-168 -163 384 0
169 163 408 0
169 -163 -408 0
-169 163 -408 0
-169 -163 408 0
170 163 418 0
170 -163 -418 0
-170 163 -418 0
-170 -163 418 0
172 171 181 0
172 -171 -181 0
-172 171 -181 0
-172 -171 181 0
173 171 223 0
173 -171 -223 0
-173 171 -223 0
-173 -171 223 0
174 171 261 0
174 -171 -261 0
-174 171 -261 0
-174 -171 261 0
175 171 322 0
175 -171 -322 0
-175 171 -322 0
-175 -171 322 0
176 171 344 0
176 -171 -344 0
-176 171 -344 0
-176 -171 344 0
177 171 377 0
177 -171 -377 0
-177 171 -377 0
-177 -171 377 0
178 171 396 0
178 -171 -396 0
-178 171 -396 0
-178 -171 396 0
179 171 424 0
179 -171 -424 0
-179 171 -424 0
-179 -171 424 0
180 171 433 0
180 -171 -433 0
-180 171 -433 0
-180 -171 433 0
182 181 218 0
182 -181 -218 0
-182 181 -218 0
-182 -181 218 0
183 181 249 0
183 -181 -249 0
-183 181 -249 0
-183 -181 249 0
184 181 336 0
184 -181 -336 0
-184 181 -336 0
-184 -181 336 0
185 181 349 0
185 -181 -349 0
-185 181 -349 0
-185 -181 349 0
186 181 377 0
186 -181 -377 0
-186 181 -377 0
-186 -181 377 0
187 181 388 0
187 -181 -388 0
-187 181 -388 0
-187 -181 388 0
188 181 400 0
188 -181 -400 0
-188 181 -400 0
-188 -181 400 0
189 181 406 0
189 -181 -406 0
-189 181 -406 0
-189 -181 406 0
190 181 408 0
190 -181 -408 0
-190 181 -408 0
-190 -181 408 0
191 181 409 0
191 -181 -409 0
-191 181 -409 0
-191 -181 409 0
192 181 418 0
192 -181 -418 0
-192 181 -418 0
-192 -181 418 0
193 181 435 0
193 -181 -435 0
-193 181 -435 0
-193 -181 435 0
195 194 315 0
195 -194 -315 0
-195 194 -315 0
-195 -194 315 0
196 194 322 0
196 -194 -322 0
-196 194 -322 0
-196 -194 322 0
197 194 365 0
197 -194 -365 0
-197 194 -365 0
-197 -194 365 0
198 194 384 0
198 -194 -384 0
-198 194 -384 0
-198 -194 384 0
199 194 396 0
199 -194 -396 0
-199 194 -396 0
-199 -194 396 0
201 200 276 0
201 -200 -276 0
-201 200 -276 0
-201 -200 276 0
202 200 281 0
202 -200 -281 0
-202 200 -281 0
-202 -200 281 0
203 200 315 0
203 -200 -315 0
-203 200 -315 0
-203 -200 315 0
204 200 377 0
204 -200 -377 0
-204 200 -377 0
-204 -200 377 0
205 200 435 0
205 -200 -435 0
-205 200 -435 0
-205 -200 435 0
206 200 437 0
206 -200 -437 0
-206 200 -437 0
-206 -200 437 0
207 200 441 0
207 -200 -441 0
-207 200 -441 0
-207 -200 441 0
209 208 272 0
209 -208 -272 0
-209 208 -272 0
-209 -208 272 0
210 208 355 0
210 -208 -355 0
-210 208 -355 0
-210 -208 355 0
211 208 365 0
211 -208 -365 0
-211 208 -365 0
-211 -208 365 0
212 208 371 0
212 -208 -371 0
-212 208 -371 0
-212 -208 371 0
213 208 377 0
213 -208 -377 0
-213 208 -377 0
-213 -208 377 0
214 208 394 0
214 -208 -394 0
-214 208 -394 0
-214 -208 394 0
215 208 406 0
215 -208 -406 0
-215 208 -406 0
-215 -208 406 0
216 208 409 0
216 -208 -409 0
-216 208 -409 0
-216 -208 409 0
217 208 418 0
217 -208 -418 0
-217 208 -418 0
-217 -208 418 0
219 218 249 0
219 -218 -249 0
-219 218 -249 0
-219 -218 249 0
220 218 311 0
220 -218 -311 0
-220 218 -311 0
-220 -218 311 0
221 218 322 0
221 -218 -322 0
-221 218 -322 0
-221 -218 322 0
222 218 411 0
222 -218 -411 0
-222 218 -411 0
-222 -218 411 0
224 223 281 0
224 -223 -281 0
-224 223 -281 0
-224 -223 281 0
225 223 289 0
225 -223 -289 0
-225 223 -289 0
-225 -223 289 0
226 223 297 0
226 -223 -297 0
-226 223 -297 0
-226 -223 297 0
227 223 303 0
227 -223 -303 0
-227 223 -303 0
-227 -223 303 0
228 223 311 0
228 -223 -311 0
-228 223 -311 0
-228 -223 311 0
229 223 409 0
229 -223 -409 0
-229 223 -409 0
-229 -223 409 0
230 223 424 0
230 -223 -424 0
-230 223 -424 0
-230 -223 424 0
232 231 311 0
232 -231 -311 0
-232 231 -311 0
-232 -231 311 0
233 231 365 0
233 -231 -365 0
-233 231 -365 0
-233 -231 365 0
234 231 384 0
234 -231 -384 0
-234 231 -384 0
-234 -231 384 0
236 235 297 0
236 -235 -297 0
-236 235 -297 0
-236 -235 297 0
237 235 336 0
237 -235 -336 0
-237 235 -336 0
-237 -235 336 0
238 235 384 0
238 -235 -384 0
-238 235 -384 0
-238 -235 384 0
239 235 408 0
239 -235 -408 0
-239 235 -408 0
-239 -235 408 0
240 235 411 0
240 -235 -411 0
-240 235 -411 0
-240 -235 411 0
241 235 415 0
241 -235 -415 0
-241 235 -415 0
-241 -235 415 0
243 242 281 0
243 -242 -281 0
-243 242 -281 0
-243 -242 281 0
244 242 303 0
244 -242 -303 0
-244 242 -303 0
-244 -242 303 0
245 242 377 0
245 -242 -377 0
-245 242 -377 0
-245 -242 377 0
246 242 384 0
246 -242 -384 0
-246 242 -384 0
-246 -242 384 0
247 242 409 0
247 -242 -409 0
-247 242 -409 0
-247 -242 409 0
248 242 430 0
248 -242 -430 0
-248 242 -430 0
-248 -242 430 0
250 249 261 0
250 -249 -261 0
-250 249 -261 0
-250 -249 261 0
251 249 289 0
251 -249 -289 0
-251 249 -289 0
-251 -249 289 0
252 249 315 0
252 -249 -315 0
-252 249 -315 0
-252 -249 315 0
253 249 331 0
253 -249 -331 0
-253 249 -331 0
-253 -249 331 0
254 249 342 0
254 -249 -342 0
-254 249 -342 0
-254 -249 342 0
255 249 355 0
255 -249 -355 0
-255 249 -355 0
-255 -249 355 0
256 249 365 0
256 -249 -365 0
-256 249 -365 0
-256 -249 365 0
257 249 408 0
257 -249 -408 0
-257 249 -408 0
-257 -249 408 0
258 249 409 0
258 -249 -409 0
-258 249 -409 0
-258 -249 409 0
259 249 439 0
259 -249 -439 0
-259 249 -439 0
-259 -249 439 0
260 249 441 0
260 -249 -441 0
-260 249 -441 0
-260 -249 441 0
262 261 311 0
262 -261 -311 0
-262 261 -311 0
-262 -261 311 0
263 261 400 0
263 -261 -400 0
-263 261 -400 0
-263 -261 400 0
264 261 418 0
264 -261 -418 0
-264 261 -418 0
-264 -261 418 0
266 265 281 0
266 -265 -281 0
-266 265 -281 0
-266 -265 281 0
267 265 311 0
267 -265 -311 0
-267 265 -311 0
-267 -265 311 0
268 265 359 0
268 -265 -359 0
-268 265 -359 0
-268 -265 359 0
269 265 411 0
269 -265 -411 0
-269 265 -411 0
-269 -265 411 0
270 265 427 0
270 -265 -427 0
-270 265 -427 0
-270 -265 427 0
271 265 439 0
271 -265 -439 0
-271 265 -439 0
-271 -265 439 0
273 272 342 0
273 -272 -342 0
-273 272 -342 0
-273 -272 342 0
274 272 344 0
274 -272 -344 0
-274 272 -344 0
-274 -272 344 0
275 272 433 0
275 -272 -433 0
-275 272 -433 0
-275 -272 433 0
277 276 311 0
277 -276 -311 0
-277 276 -311 0
-277 -276 311 0
278 276 349 0
278 -276 -349 0
-278 276 -349 0
-278 -276 349 0
279 276 384 0
279 -276 -384 0
-279 276 -384 0
-279 -276 384 0
280 276 427 0
280 -276 -427 0
-280 276 -427 0
-280 -276 427 0
282 281 289 0
282 -281 -289 0
-282 281 -289 0
-282 -281 289 0
283 281 315 0
283 -281 -315 0
-283 281 -315 0
-283 -281 315 0
284 281 322 0
284 -281 -322 0
-284 281 -322 0
-284 -281 322 0
285 281 365 0
285 -281 -365 0
-285 281 -365 0
-285 -281 365 0
286 281 377 0
286 -281 -377 0
-286 281 -377 0
-286 -281 377 0
287 281 394 0
287 -281 -394 0
-287 281 -394 0
-287 -281 394 0
288 281 437 0
288 -281 -437 0
-288 281 -437 0
-288 -281 437 0
290 289 303 0
290 -289 -303 0
-290 289 -303 0
-290 -289 303 0
291 289 311 0
291 -289 -311 0
-291 289 -311 0
-291 -289 311 0
292 289 355 0
292 -289 -355 0
-292 289 -355 0
-292 -289 355 0
293 289 415 0
293 -289 -415 0
-293 289 -415 0
-293 -289 415 0
294 289 418 0
294 -289 -418 0
-294 289 -418 0
-294 -289 418 0
295 289 432 0
295 -289 -432 0
-295 289 -432 0
-295 -289 432 0
296 289 441 0
296 -289 -441 0
-296 289 -441 0
-296 -289 441 0
298 297 418 0
298 -297 -418 0
-298 297 -418 0
-298 -297 418 0
299 297 427 0
299 -297 -427 0
-299 297 -427 0
-299 -297 427 0
300 297 430 0
300 -297 -430 0
-300 297 -430 0
-300 -297 430 0
301 297 432 0
301 -297 -432 0
-301 297 -432 0
-301 -297 432 0
302 297 438 0
302 -297 -438 0
-302 297 -438 0
-302 -297 438 0
304 303 331 0
304 -303 -331 0
-304 303 -331 0
-304 -303 331 0
305 303 336 0
305 -303 -336 0
-305 303 -336 0
-305 -303 336 0
306 303 355 0
306 -303 -355 0
-306 303 -355 0
-306 -303 355 0
307 303 400 0
307 -303 -400 0
-307 303 -400 0
-307 -303 400 0
308 303 406 0
308 -303 -406 0
-308 303 -406 0
-308 -303 406 0
309 303 418 0
309 -303 -418 0
-309 303 -418 0
-309 -303 418 0
310 303 432 0
310 -303 -432 0
-310 303 -432 0
-310 -303 432 0
312 311 409 0
312 -311 -409 0
-312 311 -409 0
-312 -311 409 0
313 311 430 0
313 -311 -430 0
-313 311 -430 0
-313 -311 430 0
314 311 433 0
314 -311 -433 0
-314 311 -433 0
-314 -311 433 0
316 315 342 0
316 -315 -342 0
-316 315 -342 0
-316 -315 342 0
317 315 355 0
317 -315 -355 0
-317 315 -355 0
-317 -315 355 0
318 315 406 0
318 -315 -406 0
-318 315 -406 0
-318 -315 406 0
319 315 411 0
319 -315 -411 0
-319 315 -411 0
-319 -315 411 0
320 315 432 0
320 -315 -432 0
-320 315 -432 0
-320 -315 432 0
321 315 439 0
321 -315 -439 0
-321 315 -439 0
-321 -315 439 0
323 322 355 0
323 -322 -355 0
-323 322 -355 0
-323 -322 355 0
324 322 359 0
324 -322 -359 0
-324 322 -359 0
-324 -322 359 0
325 322 408 0
325 -322 -408 0
-325 322 -408 0
-325 -322 408 0
326 322 409 0
326 -322 -409 0
-326 322 -409 0
-326 -322 409 0
327 322 415 0
327 -322 -415 0
-327 322 -415 0
-327 -322 415 0
328 322 433 0
328 -322 -433 0
-328 322 -433 0
-328 -322 433 0
329 322 437 0
329 -322 -437 0
-329 322 -437 0
-329 -322 437 0
330 322 441 0
330 -322 -441 0
-330 322 -441 0
-330 -322 441 0
332 331 394 0
332 -331 -394 0
-332 331 -394 0
-332 -331 394 0
333 331 400 0
333 -331 -400 0
-333 331 -400 0
-333 -331 400 0
334 331 418 0
334 -331 -418 0
-334 331 -418 0
-334 -331 418 0
335 331 424 0
335 -331 -424 0
-335 331 -424 0
-335 -331 424 0
337 336 371 0
337 -336 -371 0
-337 336 -371 0
-337 -336 371 0
338 336 400 0
338 -336 -400 0
-338 336 -400 0
-338 -336 400 0
339 336 418 0
339 -336 -418 0
-339 336 -418 0
-339 -336 418 0
340 336 424 0
340 -336 -424 0
-340 336 -424 0
-340 -336 424 0
341 336 439 0
341 -336 -439 0
-341 336 -439 0
-341 -336 439 0
343 342 394 0
343 -342 -394 0
-343 342 -394 0
-343 -342 394 0
345 344 359 0
345 -344 -359 0
-345 344 -359 0
-345 -344 359 0
346 344 415 0
346 -344 -415 0
-346 344 -415 0
-346 -344 415 0
347 344 421 0
347 -344 -421 0
-347 344 -421 0
-347 -344 421 0
348 344 433 0
348 -344 -433 0
-348 344 -433 0
-348 -344 433 0
350 349 371 0
350 -349 -371 0
-350 349 -371 0
-350 -349 371 0
351 349 384 0
351 -349 -384 0
-351 349 -384 0
-351 -349 384 0
352 349 394 0
352 -349 -394 0
-352 349 -394 0
-352 -349 394 0
353 349 408 0
353 -349 -408 0
-353 349 -408 0
-353 -349 408 0
354 349 438 0
354 -349 -438 0
-354 349 -438 0
-354 -349 438 0
356 355 359 0
356 -355 -359 0
-356 355 -359 0
-356 -355 359 0
357 355 400 0
357 -355 -400 0
-357 355 -400 0
-357 -355 400 0
358 355 437 0
358 -355 -437 0
-358 355 -437 0
-358 -355 437 0
360 359 365 0
360 -359 -365 0
-360 359 -365 0
-360 -359 365 0
361 359 377 0
361 -359 -377 0
-361 359 -377 0
-361 -359 377 0
362 359 424 0
362 -359 -424 0
-362 359 -424 0
-362 -359 424 0
363 359 427 0
363 -359 -427 0
-363 359 -427 0
-363 -359 427 0
364 359 437 0
364 -359 -437 0
-364 359 -437 0
-364 -359 437 0
366 365 377 0
366 -365 -377 0
-366 365 -377 0
-366 -365 377 0
367 365 384 0
367 -365 -384 0
-367 365 -384 0
-367 -365 384 0
368 365 408 0
368 -365 -408 0
-368 365 -408 0
-368 -365 408 0
369 365 418 0
369 -365 -418 0
-369 365 -418 0
-369 -365 418 0
370 365 439 0
370 -365 -439 0
-370 365 -439 0
-370 -365 439 0
372 371 384 0
372 -371 -384 0
-372 371 -384 0
-372 -371 384 0
373 371 415 0
373 -371 -415 0
-373 371 -415 0
-373 -371 415 0
374 371 418 0
374 -371 -418 0
-374 371 -418 0
-374 -371 418 0
375 371 421 0
375 -371 -421 0
-375 371 -421 0
-375 -371 421 0
376 371 435 0
376 -371 -435 0
-376 371 -435 0
-376 -371 435 0
378 377 384 0
378 -377 -384 0
-378 377 -384 0
-378 -377 384 0
379 377 411 0
379 -377 -411 0
-379 377 -411 0
-379 -377 411 0
380 377 415 0
380 -377 -415 0
-380 377 -415 0
-380 -377 415 0
381 377 418 0
381 -377 -418 0
-381 377 -418 0
-381 -377 418 0
382 377 432 0
382 -377 -432 0
-382 377 -432 0
-382 -377 432 0
383 377 439 0
383 -377 -439 0
-383 377 -439 0
-383 -377 439 0
385 384 424 0
385 -384 -424 0
-385 384 -424 0
-385 -384 424 0
386 384 433 0
386 -384 -433 0
-386 384 -433 0
-386 -384 433 0
387 384 439 0
387 -384 -439 0
-387 384 -439 0
-387 -384 439 0
389 388 409 0
389 -388 -409 0
-389 388 -409 0
-389 -388 409 0
390 388 427 0
390 -388 -427 0
-390 388 -427 0
-390 -388 427 0
391 388 433 0
391 -388 -433 0
-391 388 -433 0
-391 -388 433 0
392 388 438 0
392 -388 -438 0
-392 388 -438 0
-392 -388 438 0
393 388 441 0
393 -388 -441 0
-393 388 -441 0
-393 -388 441 0
395 394 433 0
395 -394 -433 0
-395 394 -433 0
-395 -394 433 0
397 396 400 0
397 -396 -400 0
-397 396 -400 0
-397 -396 400 0
398 396 432 0
398 -396 -432 0
-398 396 -432 0
-398 -396 432 0
399 396 437 0
399 -396 -437 0
-399 396 -437 0
-399 -396 437 0
401 400 406 0
401 -400 -406 0
-401 400 -406 0
-401 -400 406 0
402 400 418 0
402 -400 -418 0
-402 400 -418 0
-402 -400 418 0
403 400 427 0
403 -400 -427 0
-403 400 -427 0
-403 -400 427 0
404 400 432 0
404 -400 -432 0
-404 400 -432 0
-404 -400 432 0
405 400 437 0
405 -400 -437 0
-405 400 -437 0
-405 -400 437 0
407 406 424 0
407 -406 -424 0
-407 406 -424 0
-407 -406 424 0
410 409 433 0
410 -409 -433 0
-410 409 -433 0
-410 -409 433 0
412 411 418 0
412 -411 -418 0
-412 411 -418 0
-412 -411 418 0
413 411 424 0
413 -411 -424 0
-413 411 -424 0
-413 -411 424 0
414 411 438 0
414 -411 -438 0
-414 411 -438 0
-414 -411 438 0
416 415 424 0
416 -415 -424 0
-416 415 -424 0
-416 -415 424 0
417 415 439 0
417 -415 -439 0
-417 415 -439 0
-417 -415 439 0
419 418 433 0
419 -418 -433 0
-419 418 -433 0
-419 -418 433 0
420 418 438 0
420 -418 -438 0
-420 418 -438 0
-420 -418 438 0
422 421 432 0
422 -421 -432 0
-422 421 -432 0
-422 -421 432 0
423 421 441 0
423 -421 -441 0
-423 421 -441 0
-423 -421 441 0
425 424 430 0
425 -424 -430 0
-425 424 -430 0
-425 -424 430 0
426 424 435 0
426 -424 -435 0
-426 424 -435 0
-426 -424 435 0
428 427 430 0
428 -427 -430 0
-428 427 -430 0
-428 -427 430 0
429 427 435 0
429 -427 -435 0
-429 427 -435 0
-429 -427 435 0
431 430 433 0
431 -430 -433 0
-431 430 -433 0
-431 -430 433 0
434 433 441 0
434 -433 -441 0
-434 433 -441 0
-434 -433 441 0
436 435 439 0
436 -435 -439 0
-436 435 -439 0
-436 -435 439 0
440 439 441 0
440 -439 -441 0
-440 439 -441 0
-440 -439 441 0
